NAME: I18097-n21-k5
COMMENT : (Fake et al, No of trucks: 5, Optimal value: )
TYPE : CVRP
DIMENSION : 21
EDGE_WEIGHT_TYPE : EUC_2D
CAPACITY : 18
NODE_COORD_SECTION
1 589 808
2 168 912
3 519 817
4 548 133
5 395 744
6 921 873
7 742 442
8 289 886
9 422 870
10 943 298
11 362 984
12 716 547
13 438 661
14 590 968
15 769 270
16 702 334
17 32 212
18 219 685
19 567 142
20 40 864
21 451 615
DEMAND_SECTION
1 0
2 1
3 7
4 5
5 4
6 5
7 2
8 5
9 4
10 2
11 1
12 6
13 1
14 3
15 3
16 6
17 1
18 6
19 5
20 4
21 6
DEPOT_SECTION
 1
 -1
 EOF 